/benchmark/cnf/maxsat/evaluation/ms/ToolbarTeam/MAXCUT/DIMACS_MOD/p_hat500-2.clq.cnf
o 187
o 186
o 185
o 184
o 182
o 181
o 180
o 178
o 176
c Best Solution=176
c NB_MONO= 22, NB_UNIT= 1, NB_BRANCHE= 4273, NB_BACK= 2142 
c Program terminated in 0.410 seconds.
o 176
s OPTIMUM FOUND
v 1 2 3 -4 5 -6 7 -8 -9 10 11 -12 13 -14 -15 16 -17 -18 -19 -20 21 22 23 -24 -25 26 -27 -28 29 30 -31 32 33 34 35 36 37 -38 -39 40 -41 -42 
/benchmark/cnf/maxsat/evaluation/ms/ToolbarTeam/MAXCUT/DIMACS_MOD/san1000.clq.cnf
o 154
o 153
o 152
o 149
o 146
o 145
o 142
o 141
o 140
o 139
c Best Solution=139
c NB_MONO= 19, NB_UNIT= 1, NB_BRANCHE= 1783, NB_BACK= 895 
c Program terminated in 0.130 seconds.
o 139
s OPTIMUM FOUND
v -1 2 3 4 5 6 -7 -8 9 -10 -11 12 -13 14 15 16 -17 18 19 -20 -21 -22 23 24 25 -26 -27 -28 -29 -30 -31 32 33 -34 35 -36 -37 38 -39 40 
/benchmark/cnf/maxsat/evaluation/ms/ToolbarTeam/MAXCUT/DIMACS_MOD/c-fat200-5.clq.cnf
o 142
o 141
o 140
o 139
o 137
o 134
o 132
o 130
o 127
o 126
o 123
o 120
o 119
o 118
o 117
o 116
c Best Solution=116
c NB_MONO= 197, NB_UNIT= 1, NB_BRANCHE= 3567, NB_BACK= 1841 
c Program terminated in 0.160 seconds.
o 116
s OPTIMUM FOUND
v -1 -2 3 4 5 6 -7 -8 -9 -10 11 12 13 -14 -15 -16 -17 18 19 20 -21 -22 -23 24 25 26 27 -28 -29 -30 31 32 33 34 -35 -36 -37 -38 39 40 
/benchmark/cnf/maxsat/evaluation/ms/ToolbarTeam/MAXCUT/DIMACS_MOD/brock400_2.clq.cnf
o 265
o 264
o 263
o 262
o 261
o 260
o 259
o 258
o 257
o 256
o 255
o 254
o 253
o 252
c Best Solution=252
c NB_MONO= 13, NB_UNIT= 1, NB_BRANCHE= 264839, NB_BACK= 132423 
c Program terminated in 19.820 seconds.
o 252
s OPTIMUM FOUND
v -1 2 3 -4 -5 6 7 8 9 10 -11 -12 -13 -14 -15 -16 -17 18 19 -20 21 -22 -23 24 -25 26 27 28 29 30 31 32 -33 -34 35 -36 -37 38 -39 -40 
/benchmark/cnf/maxsat/evaluation/ms/ToolbarTeam/MAXCUT/DIMACS_MOD/brock800_2.clq.cnf
o 228
o 227
o 226
o 225
o 224
o 223
o 222
o 221
o 220
o 219
o 218
o 216
o 215
o 214
o 212
o 210
o 209
o 207
c Best Solution=207
c NB_MONO= 27, NB_UNIT= 1, NB_BRANCHE= 22304, NB_BACK= 11161 
c Program terminated in 2.100 seconds.
o 207
s OPTIMUM FOUND
v -1 -2 -3 4 5 -6 -7 8 -9 -10 -11 12 13 -14 15 16 17 -18 -19 -20 -21 -22 23 24 25 26 -27 -28 -29 30 -31 32 -33 34 -35 -36 37 38 39 40 
/benchmark/cnf/maxsat/evaluation/ms/ToolbarTeam/MAXCUT/DIMACS_MOD/p_hat300-2.clq.cnf
o 148
o 144
o 143
o 141
o 139
o 137
o 136
o 135
c Best Solution=135
c NB_MONO= 98, NB_UNIT= 1, NB_BRANCHE= 771, NB_BACK= 386 
c Program terminated in 0.060 seconds.
o 135
s OPTIMUM FOUND
v 1 2 -3 4 -5 6 -7 8 -9 10 11 -12 13 14 -15 -16 17 18 19 -20 -21 -22 23 24 25 -26 -27 -28 29 30 -31 32 33 -34 35 36 -37 38 39 -40 -41 -42 43 
/benchmark/cnf/maxsat/evaluation/ms/ToolbarTeam/MAXCUT/DIMACS_MOD/san200_0.9_1.clq.cnf
o 327
o 326
o 324
o 323
o 322
o 321
o 320
o 319
o 318
o 317
o 316
o 315
o 314
o 313
c Best Solution=313
c NB_MONO= 3, NB_UNIT= 1, NB_BRANCHE= 7095599, NB_BACK= 3547843 
c Program terminated in 360.640 seconds.
o 313
s OPTIMUM FOUND
v -1 2 3 4 5 -6 -7 -8 9 -10 -11 -12 -13 -14 15 16 -17 18 19 20 -21 22 -23 -24 -25 -26 -27 -28 29 30 -31 32 33 -34 35 -36 37 38 39 40 
/benchmark/cnf/maxsat/evaluation/ms/ToolbarTeam/MAXCUT/DIMACS_MOD/hamming6-2.clq.cnf
/benchmark/cnf/maxsat/evaluation/ms/ToolbarTeam/MAXCUT/DIMACS_MOD/hamming10-2.clq.cnf
/benchmark/cnf/maxsat/evaluation/ms/ToolbarTeam/MAXCUT/DIMACS_MOD/brock200_3.clq.cnf
o 233
o 232
o 231
o 230
o 228
o 227
o 225
o 224
o 223
o 222
o 221
o 220
o 219
o 218
o 217
o 216
o 215
o 214
c Best Solution=214
c NB_MONO= 15, NB_UNIT= 1, NB_BRANCHE= 47241, NB_BACK= 23625 
c Program terminated in 3.510 seconds.
o 214
s OPTIMUM FOUND
v 1 -2 -3 -4 -5 -6 7 -8 -9 10 -11 12 13 14 15 -16 -17 18 19 -20 21 -22 -23 24 25 -26 -27 28 -29 -30 31 -32 33 34 35 36 37 -38 -39 40 
/benchmark/cnf/maxsat/evaluation/ms/ToolbarTeam/MAXCUT/DIMACS_MOD/san400_0.5_1.clq.cnf
o 173
o 172
o 170
o 169
o 167
o 164
o 161
o 160
o 158
o 157
o 154
o 153
o 152
o 151
o 149
o 147
o 146
c Best Solution=146
c NB_MONO= 32, NB_UNIT= 1, NB_BRANCHE= 2097, NB_BACK= 1055 
c Program terminated in 0.180 seconds.
o 146
s OPTIMUM FOUND
v -1 2 3 -4 5 -6 7 -8 -9 10 -11 -12 13 14 15 -16 -17 18 19 -20 -21 -22 23 -24 -25 26 -27 28 29 30 -31 32 33 -34 -35 -36 37 38 39 -40 
/benchmark/cnf/maxsat/evaluation/ms/ToolbarTeam/MAXCUT/DIMACS_MOD/sanr200_0.7.clq.cnf
o 238
o 237
o 236
o 235
o 234
o 233
o 232
o 231
o 230
o 228
o 227
c Best Solution=227
c NB_MONO= 12, NB_UNIT= 1, NB_BRANCHE= 94752, NB_BACK= 47382 
c Program terminated in 7.640 seconds.
o 227
s OPTIMUM FOUND
v -1 -2 3 -4 -5 6 7 -8 9 10 11 -12 -13 14 15 -16 17 18 -19 20 21 22 23 -24 25 -26 -27 -28 -29 30 31 -32 -33 34 35 -36 -37 38 39 -40 
/benchmark/cnf/maxsat/evaluation/ms/ToolbarTeam/MAXCUT/DIMACS_MOD/brock400_1.clq.cnf
o 270
o 269
o 268
o 267
o 265
o 263
o 262
o 261
o 260
o 259
o 258
o 256
o 255
c Best Solution=255
c NB_MONO= 19, NB_UNIT= 1, NB_BRANCHE= 376022, NB_BACK= 188018 
c Program terminated in 24.700 seconds.
o 255
s OPTIMUM FOUND
v -1 -2 3 4 -5 6 -7 -8 -9 -10 -11 -12 13 14 15 16 -17 -18 19 20 -21 22 23 24 25 26 -27 28 29 -30 -31 -32 -33 -34 -35 36 37 38 -39 40 
/benchmark/cnf/maxsat/evaluation/ms/ToolbarTeam/MAXCUT/DIMACS_MOD/keller5.clq.cnf
o 265
o 264
o 263
o 261
o 259
o 258
o 257
o 256
o 255
o 254
o 253
o 252
o 251
o 250
c Best Solution=250
c NB_MONO= 18, NB_UNIT= 1, NB_BRANCHE= 51759, NB_BACK= 25887 
c Program terminated in 6.290 seconds.
o 250
s OPTIMUM FOUND
v -1 2 -3 4 -5 -6 7 -8 9 -10 11 -12 -13 -14 -15 16 -17 18 19 20 21 -22 -23 24 25 -26 -27 28 -29 -30 31 32 33 34 -35 36 -37 38 39 -40 41 
/benchmark/cnf/maxsat/evaluation/ms/ToolbarTeam/MAXCUT/DIMACS_MOD/brock400_4.clq.cnf
o 260
o 258
o 256
o 255
o 254
o 253
o 251
o 250
o 249
c Best Solution=249
c NB_MONO= 12, NB_UNIT= 1, NB_BRANCHE= 128899, NB_BACK= 64455 
c Program terminated in 10.090 seconds.
o 249
s OPTIMUM FOUND
v -1 -2 -3 4 -5 6 7 8 -9 -10 11 -12 13 14 -15 -16 17 18 19 20 21 -22 -23 24 25 -26 27 -28 -29 30 31 -32 -33 -34 35 -36 -37 38 39 -40 
/benchmark/cnf/maxsat/evaluation/ms/ToolbarTeam/MAXCUT/DIMACS_MOD/johnson16-2-4.clq.cnf
o 256
o 254
o 253
o 252
o 250
o 248
o 247
o 246
o 244
o 240
o 238
o 236
o 235
o 234
o 231
o 229
o 226
o 222
o 221
o 215
c Best Solution=215
c NB_MONO= 41, NB_UNIT= 1, NB_BRANCHE= 2245, NB_BACK= 1115 
c Program terminated in 0.290 seconds.
o 215
s OPTIMUM FOUND
v -1 -2 -3 4 -5 -6 7 -8 9 10 -11 -12 -13 14 15 -16 17 18 19 -20 -21 -22 -23 24 25 26 -27 28 29 30 31 -32 -33 -34 -35 -36 37 38 39 40 
/benchmark/cnf/maxsat/evaluation/ms/ToolbarTeam/MAXCUT/DIMACS_MOD/johnson8-4-4.clq.cnf
/benchmark/cnf/maxsat/evaluation/ms/ToolbarTeam/MAXCUT/DIMACS_MOD/p_hat500-1.clq.cnf
o 83
o 82
o 81
o 79
o 78
o 76
o 75
c Best Solution=75
c NB_MONO= 32, NB_UNIT= 1, NB_BRANCHE= 245, NB_BACK= 121 
c Program terminated in 0.010 seconds.
o 75
s OPTIMUM FOUND
v -1 -2 -3 4 -5 6 -7 8 9 -10 -11 12 -13 14 15 -16 17 18 19 -20 -21 22 -23 24 -25 -26 27 28 -29 -30 31 -32 -33 34 -35 -36 -37 38 39 -40 41 42 
/benchmark/cnf/maxsat/evaluation/ms/ToolbarTeam/MAXCUT/DIMACS_MOD/MANN_a45.clq.cnf
/benchmark/cnf/maxsat/evaluation/ms/ToolbarTeam/MAXCUT/DIMACS_MOD/sanr200_0.9.clq.cnf
o 318
o 317
o 316
o 315
o 314
o 313
o 312
o 311
o 309
o 308
o 307
o 306
o 305
o 304
o 302
o 301
o 300
c Best Solution=300
c NB_MONO= 9, NB_UNIT= 1, NB_BRANCHE= 2510078, NB_BACK= 1255047 
c Program terminated in 146.650 seconds.
o 300
s OPTIMUM FOUND
v -1 -2 -3 -4 -5 6 -7 -8 -9 -10 11 12 -13 14 15 16 -17 -18 19 20 21 -22 -23 -24 25 -26 -27 -28 29 30 31 32 33 34 35 -36 37 38 -39 40 
/benchmark/cnf/maxsat/evaluation/ms/ToolbarTeam/MAXCUT/DIMACS_MOD/keller4.clq.cnf
o 235
o 228
o 227
o 226
o 225
o 223
o 219
o 217
o 216
o 213
o 212
o 208
o 201
o 199
c Best Solution=199
c NB_MONO= 33, NB_UNIT= 1, NB_BRANCHE= 746, NB_BACK= 377 
c Program terminated in 0.130 seconds.
o 199
s OPTIMUM FOUND
v -1 2 -3 -4 -5 -6 -7 -8 -9 -10 11 -12 -13 -14 -15 -16 17 18 19 20 21 22 23 24 25 26 27 28 29 30 31 32 33 34 -35 36 -37 -38 -39 -40 -41 42 43 
/benchmark/cnf/maxsat/evaluation/ms/ToolbarTeam/MAXCUT/DIMACS_MOD/p_hat700-2.clq.cnf
o 169
o 168
o 167
o 166
o 165
o 164
o 159
o 158
o 157
o 156
o 155
o 154
c Best Solution=154
c NB_MONO= 33, NB_UNIT= 1, NB_BRANCHE= 1650, NB_BACK= 830 
c Program terminated in 0.140 seconds.
o 154
s OPTIMUM FOUND
v 1 2 3 -4 -5 -6 7 8 9 10 11 12 13 -14 -15 16 17 -18 19 20 21 -22 -23 24 -25 26 -27 -28 29 30 -31 -32 33 34 -35 36 -37 -38 39 -40 -41 -42 
/benchmark/cnf/maxsat/evaluation/ms/ToolbarTeam/MAXCUT/DIMACS_MOD/brock400_3.clq.cnf
o 253
o 252
o 251
o 250
o 249
o 248
o 247
o 246
o 245
o 244
o 243
o 242
o 241
o 240
o 239
o 238
c Best Solution=238
c NB_MONO= 16, NB_UNIT= 1, NB_BRANCHE= 120752, NB_BACK= 60375 
c Program terminated in 8.950 seconds.
o 238
s OPTIMUM FOUND
v -1 2 -3 4 5 -6 -7 8 9 -10 -11 12 13 -14 15 -16 -17 -18 -19 -20 21 -22 23 24 -25 26 -27 28 29 -30 -31 32 33 -34 -35 36 37 38 39 -40 
/benchmark/cnf/maxsat/evaluation/ms/ToolbarTeam/MAXCUT/DIMACS_MOD/p_hat700-1.clq.cnf
o 67
o 65
o 64
o 63
c Best Solution=63
c NB_MONO= 25, NB_UNIT= 1, NB_BRANCHE= 138, NB_BACK= 69 
c Program terminated in 0.000 seconds.
o 63
s OPTIMUM FOUND
v 1 2 -3 -4 -5 -6 7 -8 9 10 -11 -12 -13 14 -15 16 17 18 19 -20 -21 -22 -23 24 25 26 -27 28 29 30 31 -32 33 -34 -35 -36 37 38 -39 40 41 -42 
/benchmark/cnf/maxsat/evaluation/ms/ToolbarTeam/MAXCUT/DIMACS_MOD/san200_0.9_2.clq.cnf
o 331
o 329
o 328
o 327
o 326
o 325
o 324
o 322
o 321
o 320
o 319
o 318
o 317
o 316
c Best Solution=316
c NB_MONO= 10, NB_UNIT= 1, NB_BRANCHE= 8566142, NB_BACK= 4283137 
c Program terminated in 444.260 seconds.
o 316
s OPTIMUM FOUND
v 1 2 -3 -4 -5 6 7 -8 -9 -10 -11 12 13 -14 -15 16 17 18 19 20 -21 22 -23 -24 -25 26 -27 28 -29 30 31 -32 -33 -34 35 36 -37 38 39 -40 
/benchmark/cnf/maxsat/evaluation/ms/ToolbarTeam/MAXCUT/DIMACS_MOD/hamming10-4.clq.cnf
o 333
o 332
o 331
o 329
o 328
o 327
o 326
o 325
o 324
o 323
o 322
o 321
o 320
o 319
c Best Solution=319
c NB_MONO= 11, NB_UNIT= 1, NB_BRANCHE= 4749747, NB_BACK= 2374883 
c Program terminated in 293.360 seconds.
o 319
s OPTIMUM FOUND
v 1 2 3 4 5 6 7 -8 9 10 11 12 -13 14 15 16 17 -18 19 20 21 -22 -23 -24 25 26 -27 -28 -29 -30 -31 -32 -33 -34 35 -36 -37 -38 -39 -40 -41 
/benchmark/cnf/maxsat/evaluation/ms/ToolbarTeam/MAXCUT/DIMACS_MOD/MANN_a9.clq.cnf
/benchmark/cnf/maxsat/evaluation/ms/ToolbarTeam/MAXCUT/DIMACS_MOD/hamming8-2.clq.cnf
/benchmark/cnf/maxsat/evaluation/ms/ToolbarTeam/MAXCUT/DIMACS_MOD/sanr400_0.5.clq.cnf
o 170
o 169
o 167
o 162
o 160
o 159
o 156
o 155
o 154
o 153
o 152
o 150
o 149
o 148
c Best Solution=148
c NB_MONO= 44, NB_UNIT= 1, NB_BRANCHE= 2188, NB_BACK= 1103 
c Program terminated in 0.190 seconds.
o 148
s OPTIMUM FOUND
v -1 2 -3 4 5 -6 -7 8 9 10 -11 -12 13 -14 -15 16 17 18 -19 -20 21 -22 -23 -24 25 26 -27 -28 -29 30 -31 32 33 -34 35 36 37 -38 39 -40 
/benchmark/cnf/maxsat/evaluation/ms/ToolbarTeam/MAXCUT/DIMACS_MOD/san400_0.7_2.clq.cnf
o 251
o 250
o 249
o 248
o 247
o 246
o 245
o 244
o 242
o 241
o 240
o 239
o 238
o 237
o 236
c Best Solution=236
c NB_MONO= 8, NB_UNIT= 1, NB_BRANCHE= 108074, NB_BACK= 54046 
c Program terminated in 7.500 seconds.
o 236
s OPTIMUM FOUND
v -1 -2 -3 4 -5 -6 -7 -8 9 10 -11 12 13 -14 -15 16 17 18 -19 20 21 -22 -23 24 -25 -26 -27 -28 29 -30 31 32 33 -34 -35 36 37 38 39 40 
/benchmark/cnf/maxsat/evaluation/ms/ToolbarTeam/MAXCUT/DIMACS_MOD/p_hat300-3.clq.cnf
o 287
o 286
o 285
o 282
o 281
o 280
o 279
o 278
o 277
o 276
o 275
o 274
o 273
o 272
o 271
o 270
o 269
c Best Solution=269
c NB_MONO= 11, NB_UNIT= 1, NB_BRANCHE= 230368, NB_BACK= 115194 
c Program terminated in 18.820 seconds.
o 269
s OPTIMUM FOUND
v 1 -2 3 4 -5 6 7 8 9 -10 -11 -12 -13 -14 -15 -16 -17 18 -19 -20 -21 22 -23 -24 -25 -26 -27 28 29 30 -31 -32 33 34 -35 36 -37 38 39 40 41 42 -43 
/benchmark/cnf/maxsat/evaluation/ms/ToolbarTeam/MAXCUT/DIMACS_MOD/hamming8-4.clq.cnf
o 181
o 176
c Best Solution=176
c NB_MONO= 3, NB_UNIT= 1, NB_BRANCHE= 1594, NB_BACK= 800 
c Program terminated in 0.260 seconds.
o 176
s OPTIMUM FOUND
v -1 -2 -3 4 5 6 -7 -8 9 10 11 -12 -13 -14 15 16 -17 -18 -19 20 21 22 -23 -24 25 26 27 -28 -29 -30 31 32 -33 -34 -35 36 37 38 -39 -40 41 42 43 
/benchmark/cnf/maxsat/evaluation/ms/ToolbarTeam/MAXCUT/DIMACS_MOD/c-fat200-1.clq.cnf
o 8
o 6
o 4
c Best Solution=4
c NB_MONO= 33, NB_UNIT= 1, NB_BRANCHE= 22, NB_BACK= 7 
c Program terminated in 0.000 seconds.
o 4
s OPTIMUM FOUND
v -1 2 -3 -4 5 -6 7 -8 9 -10 -11 12 -13 14 -15 16 -17 -18 19 -20 21 -22 23 -24 25 26 -27 28 -29 30 -31 32 33 -34 35 -36 37 -38 39 40 
/benchmark/cnf/maxsat/evaluation/ms/ToolbarTeam/MAXCUT/DIMACS_MOD/p_hat300-1.clq.cnf
o 59
o 58
o 57
o 56
o 55
o 54
o 52
o 50
o 49
c Best Solution=49
c NB_MONO= 53, NB_UNIT= 1, NB_BRANCHE= 161, NB_BACK= 78 
c Program terminated in 0.000 seconds.
o 49
s OPTIMUM FOUND
v 1 -2 3 -4 -5 6 -7 -8 9 10 -11 12 13 -14 15 16 17 -18 19 -20 21 -22 23 -24 25 -26 -27 -28 -29 30 -31 -32 -33 34 35 36 -37 38 39 40 -41 -42 43 
/benchmark/cnf/maxsat/evaluation/ms/ToolbarTeam/MAXCUT/DIMACS_MOD/johnson8-2-4.clq.cnf
o 84
o 82
o 81
o 80
o 78
o 75
c Best Solution=75
c NB_MONO= 12, NB_UNIT= 1, NB_BRANCHE= 336, NB_BACK= 167 
c Program terminated in 0.010 seconds.
o 75
s OPTIMUM FOUND
v -1 2 -3 -4 -5 -6 7 -8 9 -10 11 -12 13 -14 15 16 -17 18 -19 20 21 22 -23 24 -25 26 27 28 
/benchmark/cnf/maxsat/evaluation/ms/ToolbarTeam/MAXCUT/DIMACS_MOD/c-fat500-5.clq.cnf
/benchmark/cnf/maxsat/evaluation/ms/ToolbarTeam/MAXCUT/DIMACS_MOD/p_hat1000-1.clq.cnf
o 65
o 63
o 62
o 61
o 58
o 57
o 56
o 55
o 54
o 52
c Best Solution=52
c NB_MONO= 50, NB_UNIT= 1, NB_BRANCHE= 159, NB_BACK= 81 
c Program terminated in 0.000 seconds.
o 52
s OPTIMUM FOUND
v 1 2 3 -4 -5 6 7 8 9 -10 11 -12 -13 -14 15 -16 -17 -18 -19 20 -21 22 -23 24 -25 26 27 -28 29 -30 -31 -32 33 34 35 36 -37 38 39 -40 
/benchmark/cnf/maxsat/evaluation/ms/ToolbarTeam/MAXCUT/DIMACS_MOD/san400_0.7_1.clq.cnf
o 254
o 253
o 252
o 251
o 249
o 248
o 247
o 246
o 244
o 243
o 241
o 240
o 239
o 238
o 237
o 236
c Best Solution=236
c NB_MONO= 18, NB_UNIT= 1, NB_BRANCHE= 193989, NB_BACK= 97002 
c Program terminated in 12.420 seconds.
o 236
s OPTIMUM FOUND
v 1 2 3 4 5 -6 7 -8 -9 10 11 -12 13 -14 -15 16 17 18 19 -20 -21 -22 23 24 25 26 27 -28 -29 -30 31 -32 -33 -34 -35 36 -37 38 -39 -40 
/benchmark/cnf/maxsat/evaluation/ms/ToolbarTeam/MAXCUT/DIMACS_MOD/brock800_3.clq.cnf
o 216
o 214
o 213
o 212
o 210
o 209
o 208
o 207
o 206
o 205
o 204
o 203
c Best Solution=203
c NB_MONO= 21, NB_UNIT= 1, NB_BRANCHE= 28624, NB_BACK= 14319 
c Program terminated in 2.440 seconds.
o 203
s OPTIMUM FOUND
v 1 2 -3 -4 -5 6 -7 8 -9 10 11 -12 13 -14 -15 16 17 -18 19 -20 21 -22 -23 24 -25 26 -27 28 -29 30 31 -32 -33 34 -35 -36 37 38 -39 40 
/benchmark/cnf/maxsat/evaluation/ms/ToolbarTeam/MAXCUT/DIMACS_MOD/san200_0.7_2.clq.cnf
o 250
o 249
o 248
o 247
o 246
o 244
o 243
o 242
o 241
o 240
o 239
o 238
o 237
o 236
c Best Solution=236
c NB_MONO= 15, NB_UNIT= 1, NB_BRANCHE= 93097, NB_BACK= 46552 
c Program terminated in 7.180 seconds.
o 236
s OPTIMUM FOUND
v -1 2 -3 4 -5 6 -7 8 -9 10 11 -12 -13 -14 -15 16 -17 -18 -19 20 -21 -22 -23 24 25 26 -27 28 29 30 31 -32 -33 34 35 -36 -37 38 39 40 
/benchmark/cnf/maxsat/evaluation/ms/ToolbarTeam/MAXCUT/DIMACS_MOD/p_hat500-3.clq.cnf
o 292
o 291
o 290
o 289
o 288
o 287
o 286
o 285
o 284
c Best Solution=284
c NB_MONO= 10, NB_UNIT= 1, NB_BRANCHE= 797372, NB_BACK= 398694 
c Program terminated in 56.650 seconds.
o 284
s OPTIMUM FOUND
v -1 2 -3 -4 5 -6 -7 -8 -9 -10 11 -12 -13 14 15 -16 17 18 19 -20 -21 22 -23 -24 25 26 27 -28 -29 30 -31 -32 -33 34 35 36 37 38 39 -40 41 42 
/benchmark/cnf/maxsat/evaluation/ms/ToolbarTeam/MAXCUT/DIMACS_MOD/san200_0.9_3.clq.cnf
o 335
o 334
o 332
o 331
o 330
o 329
o 328
o 327
o 326
o 325
o 324
o 323
o 322
o 321
o 320
c Best Solution=320
c NB_MONO= 18, NB_UNIT= 1, NB_BRANCHE= 8799195, NB_BACK= 4399697 
c Program terminated in 447.980 seconds.
o 320
s OPTIMUM FOUND
v 1 -2 3 -4 -5 6 7 -8 9 10 11 -12 -13 14 15 16 -17 18 -19 20 -21 -22 23 24 -25 26 -27 -28 -29 30 -31 -32 33 -34 -35 36 37 38 -39 -40 
/benchmark/cnf/maxsat/evaluation/ms/ToolbarTeam/MAXCUT/DIMACS_MOD/brock200_4.clq.cnf
o 217
o 216
o 215
o 213
o 212
o 211
o 209
c Best Solution=209
c NB_MONO= 11, NB_UNIT= 1, NB_BRANCHE= 25230, NB_BACK= 12619 
c Program terminated in 2.120 seconds.
o 209
s OPTIMUM FOUND
v 1 -2 -3 -4 -5 6 -7 -8 9 10 11 -12 13 14 -15 -16 17 -18 19 20 -21 22 23 24 -25 26 27 28 29 -30 -31 -32 33 -34 35 -36 37 -38 -39 40 
/benchmark/cnf/maxsat/evaluation/ms/ToolbarTeam/MAXCUT/DIMACS_MOD/MANN_a81.clq.cnf
/benchmark/cnf/maxsat/evaluation/ms/ToolbarTeam/MAXCUT/DIMACS_MOD/hamming6-4.clq.cnf
o 244
o 240
o 238
o 230
o 226
o 222
o 218
o 212
o 202
o 192
c Best Solution=192
c NB_MONO= 25, NB_UNIT= 1, NB_BRANCHE= 820, NB_BACK= 411 
c Program terminated in 0.320 seconds.
o 192
s OPTIMUM FOUND
v -1 2 -3 4 -5 6 -7 8 -9 10 -11 12 -13 14 -15 16 -17 18 -19 20 -21 22 -23 24 -25 26 -27 28 -29 30 -31 32 -33 34 -35 36 -37 38 -39 40 -41 42 -43 44 -45 46 -47 48 -49 50 -51 52 -53 54 -55 56 -57 58 -59 60 -61 62 -63 64 
/benchmark/cnf/maxsat/evaluation/ms/ToolbarTeam/MAXCUT/DIMACS_MOD/san400_0.7_3.clq.cnf
o 248
o 247
o 246
o 245
o 243
o 242
o 241
o 240
o 239
o 238
o 236
o 235
o 234
o 233
o 232
o 231
o 230
c Best Solution=230
c NB_MONO= 25, NB_UNIT= 1, NB_BRANCHE= 133936, NB_BACK= 66973 
c Program terminated in 9.120 seconds.
o 230
s OPTIMUM FOUND
v 1 2 3 4 -5 6 -7 -8 9 10 -11 12 13 -14 15 16 17 -18 -19 20 -21 -22 -23 24 -25 26 -27 -28 -29 30 31 -32 -33 34 35 -36 -37 -38 39 -40 
/benchmark/cnf/maxsat/evaluation/ms/ToolbarTeam/MAXCUT/DIMACS_MOD/p_hat1000-3.clq.cnf
o 266
o 265
o 262
o 261
o 259
o 258
o 257
o 256
o 255
o 254
o 252
o 251
o 250
o 249
o 248
o 247
o 246
o 245
o 244
o 243
o 242
o 241
o 240
o 239
o 238
c Best Solution=238
c NB_MONO= 25, NB_UNIT= 1, NB_BRANCHE= 75753, NB_BACK= 37888 
c Program terminated in 6.160 seconds.
o 238
s OPTIMUM FOUND
v -1 -2 3 -4 -5 -6 -7 8 -9 -10 11 -12 13 -14 15 -16 17 -18 19 -20 21 22 -23 -24 -25 26 27 -28 29 30 31 32 -33 34 35 36 37 38 -39 -40 
/benchmark/cnf/maxsat/evaluation/ms/ToolbarTeam/MAXCUT/DIMACS_MOD/johnson32-2-4.clq.cnf
o 356
o 354
o 353
o 351
o 349
o 348
o 347
o 346
o 344
o 343
o 342
o 341
o 340
o 339
o 335
o 334
o 333
o 331
o 330
o 329
c Best Solution=329
c NB_MONO= 19, NB_UNIT= 1, NB_BRANCHE= 746982, NB_BACK= 373500 
c Program terminated in 72.780 seconds.
o 329
s OPTIMUM FOUND
v 1 -2 -3 4 -5 -6 7 8 -9 -10 11 12 -13 -14 -15 16 -17 -18 19 20 21 22 -23 24 25 26 27 28 -29 -30 31 32 33 -34 -35 -36 -37 38 39 -40 -41 -42 
/benchmark/cnf/maxsat/evaluation/ms/ToolbarTeam/MAXCUT/DIMACS_MOD/brock200_2.clq.cnf
o 157
o 155
o 154
o 152
o 151
o 150
o 149
o 148
o 147
o 146
o 145
o 144
o 143
o 142
o 141
c Best Solution=141
c NB_MONO= 18, NB_UNIT= 1, NB_BRANCHE= 1876, NB_BACK= 947 
c Program terminated in 0.160 seconds.
o 141
s OPTIMUM FOUND
v 1 2 3 -4 -5 -6 -7 8 9 -10 -11 -12 13 -14 -15 16 17 18 -19 20 21 -22 -23 24 25 -26 27 -28 -29 -30 -31 -32 -33 34 -35 36 37 38 39 40 
/benchmark/cnf/maxsat/evaluation/ms/ToolbarTeam/MAXCUT/DIMACS_MOD/san200_0.7_1.clq.cnf
o 247
o 246
o 243
o 242
o 241
o 240
o 239
o 238
o 237
c Best Solution=237
c NB_MONO= 10, NB_UNIT= 1, NB_BRANCHE= 360021, NB_BACK= 180013 
c Program terminated in 22.430 seconds.
o 237
s OPTIMUM FOUND
v -1 -2 3 -4 5 6 7 8 -9 10 11 -12 13 -14 15 -16 17 18 19 -20 -21 -22 -23 24 25 -26 27 -28 -29 -30 -31 32 33 34 -35 36 -37 -38 39 -40 
/benchmark/cnf/maxsat/evaluation/ms/ToolbarTeam/MAXCUT/DIMACS_MOD/p_hat700-3.clq.cnf
o 279
o 278
o 276
o 275
o 274
o 273
o 272
o 271
o 270
o 269
o 268
o 267
c Best Solution=267
c NB_MONO= 13, NB_UNIT= 1, NB_BRANCHE= 313975, NB_BACK= 156994 
c Program terminated in 25.360 seconds.
o 267
s OPTIMUM FOUND
v 1 -2 3 -4 -5 -6 7 -8 -9 -10 -11 -12 13 14 15 16 -17 -18 19 20 -21 -22 23 -24 -25 26 -27 28 29 30 -31 -32 -33 34 -35 36 37 -38 39 40 41 42 
/benchmark/cnf/maxsat/evaluation/ms/ToolbarTeam/MAXCUT/DIMACS_MOD/c-fat500-2.clq.cnf
o 24
c Best Solution=24
c NB_MONO= 1036, NB_UNIT= 1, NB_BRANCHE= 6161, NB_BACK= 4096 
c Program terminated in 0.010 seconds.
o 24
s OPTIMUM FOUND
v -1 -2 -3 -4 -5 -6 -7 -8 -9 -10 -11 -12 13 14 15 16 17 18 19 20 21 22 -23 -24 -25 -26 -27 -28 -29 -30 31 32 33 34 35 36 37 38 39 40 41 42 
/benchmark/cnf/maxsat/evaluation/ms/ToolbarTeam/MAXCUT/DIMACS_MOD/brock800_4.clq.cnf
o 215
o 213
o 211
o 209
o 208
o 207
o 206
o 205
o 204
o 201
o 200
c Best Solution=200
c NB_MONO= 18, NB_UNIT= 1, NB_BRANCHE= 19012, NB_BACK= 9512 
c Program terminated in 1.680 seconds.
o 200
s OPTIMUM FOUND
v 1 -2 3 -4 -5 6 -7 8 9 -10 11 -12 13 14 -15 -16 17 18 19 20 -21 -22 23 24 -25 -26 -27 -28 29 -30 -31 32 33 -34 -35 36 37 -38 39 -40 
/benchmark/cnf/maxsat/evaluation/ms/ToolbarTeam/MAXCUT/DIMACS_MOD/sanr400_0.7.clq.cnf
o 244
o 242
o 241
o 240
o 238
o 237
o 236
o 235
o 234
o 233
o 232
o 231
o 230
o 227
o 226
o 225
o 224
o 223
c Best Solution=223
c NB_MONO= 16, NB_UNIT= 1, NB_BRANCHE= 31236, NB_BACK= 15627 
c Program terminated in 2.830 seconds.
o 223
s OPTIMUM FOUND
v -1 2 3 -4 5 -6 -7 8 -9 10 11 -12 13 -14 15 -16 17 -18 -19 -20 21 -22 23 24 -25 26 -27 28 -29 30 31 32 -33 34 35 -36 -37 -38 39 -40 
/benchmark/cnf/maxsat/evaluation/ms/ToolbarTeam/MAXCUT/DIMACS_MOD/c-fat500-1.clq.cnf
o 2
c Best Solution=2
c NB_MONO= 22, NB_UNIT= 1, NB_BRANCHE= 22, NB_BACK= 3 
c Program terminated in 0.000 seconds.
o 2
s OPTIMUM FOUND
v -1 -2 -3 -4 -5 -6 -7 -8 -9 -10 -11 -12 -13 -14 -15 -16 -17 -18 -19 -20 21 22 23 24 25 26 27 28 29 30 31 32 33 34 35 36 37 38 39 40 41 42 
/benchmark/cnf/maxsat/evaluation/ms/ToolbarTeam/MAXCUT/DIMACS_MOD/brock800_1.clq.cnf
o 223
o 221
o 218
o 216
o 215
o 214
o 213
o 212
o 211
o 210
o 208
o 207
o 206
o 205
c Best Solution=205
c NB_MONO= 23, NB_UNIT= 1, NB_BRANCHE= 16920, NB_BACK= 8466 
c Program terminated in 1.500 seconds.
o 205
s OPTIMUM FOUND
v 1 2 -3 -4 -5 -6 -7 8 9 10 -11 12 -13 14 -15 -16 -17 18 19 -20 21 22 23 -24 -25 -26 -27 28 29 -30 -31 -32 -33 -34 35 36 37 38 39 40 
/benchmark/cnf/maxsat/evaluation/ms/ToolbarTeam/MAXCUT/DIMACS_MOD/c-fat500-10.clq.cnf
/benchmark/cnf/maxsat/evaluation/ms/ToolbarTeam/MAXCUT/DIMACS_MOD/san400_0.9_1.clq.cnf
o 318
o 317
o 314
o 313
o 312
o 311
o 310
o 309
o 308
o 307
o 306
o 305
o 304
c Best Solution=304
c NB_MONO= 6, NB_UNIT= 1, NB_BRANCHE= 6561045, NB_BACK= 3280566 
c Program terminated in 336.680 seconds.
o 304
s OPTIMUM FOUND
v -1 2 3 -4 -5 -6 -7 8 -9 -10 11 12 -13 14 -15 16 17 18 19 -20 -21 22 23 -24 -25 26 27 -28 29 30 31 -32 -33 -34 35 36 -37 -38 39 -40 
/benchmark/cnf/maxsat/evaluation/ms/ToolbarTeam/MAXCUT/DIMACS_MOD/c-fat200-2.clq.cnf
o 48
o 46
o 44
o 42
o 40
o 38
o 37
o 36
o 35
o 34
o 33
o 32
o 30
o 28
o 26
c Best Solution=26
c NB_MONO= 136, NB_UNIT= 1, NB_BRANCHE= 242, NB_BACK= 125 
c Program terminated in 0.000 seconds.
o 26
s OPTIMUM FOUND
v -1 2 -3 4 -5 6 -7 8 -9 10 -11 12 -13 14 -15 16 -17 18 -19 20 -21 22 -23 24 -25 26 -27 28 -29 30 -31 32 -33 34 -35 36 -37 38 -39 40 
/benchmark/cnf/maxsat/evaluation/ms/ToolbarTeam/MAXCUT/DIMACS_MOD/p_hat1000-2.clq.cnf
o 150
o 149
o 148
o 146
o 145
o 144
o 143
o 142
c Best Solution=142
c NB_MONO= 24, NB_UNIT= 1, NB_BRANCHE= 2452, NB_BACK= 1227 
c Program terminated in 0.170 seconds.
o 142
s OPTIMUM FOUND
v -1 -2 3 4 5 -6 -7 8 9 -10 11 -12 -13 -14 15 -16 -17 -18 -19 -20 -21 -22 -23 24 25 26 27 -28 29 -30 31 -32 33 34 35 36 37 38 -39 -40 
/benchmark/cnf/maxsat/evaluation/ms/ToolbarTeam/MAXCUT/DIMACS_MOD/brock200_1.clq.cnf
o 257
o 256
o 255
o 254
o 252
o 251
o 250
o 249
o 248
o 244
o 242
o 240
o 239
o 238
c Best Solution=238
c NB_MONO= 21, NB_UNIT= 1, NB_BRANCHE= 172619, NB_BACK= 86317 
c Program terminated in 12.170 seconds.
o 238
s OPTIMUM FOUND
v 1 2 -3 -4 -5 -6 7 -8 9 -10 11 12 13 -14 15 -16 17 18 19 -20 21 -22 -23 -24 25 -26 27 -28 29 -30 -31 32 -33 -34 35 -36 37 -38 39 40 
/benchmark/cnf/maxsat/evaluation/ms/ToolbarTeam/MAXCUT/DIMACS_MOD/MANN_a27.clq.cnf
